; benchmark generated from python API
(set-info :status unknown)
(declare-fun x_epoch () Int)
(declare-fun x_plus_epoch () Int)
(declare-fun x_plus_month () Int)
(declare-fun x_plus_year () Int)
(declare-fun x_plus_day () Int)
(declare-fun x_plus_1_epoch () Int)
(assert
 (>= x_epoch (- 36525)))
(assert
 (<= x_epoch 36523))
(assert
 (>= x_epoch 7214))
(assert
 (<= x_epoch 7304))
(assert
 (>= x_plus_epoch (- 36525)))
(assert
 (<= x_plus_epoch 36523))
(assert
 (let (($x474 (= x_plus_month 11)))
 (let (($x729 (= x_plus_month 9)))
 (let (($x804 (= x_plus_month 6)))
 (let (($x1133 (= x_plus_month 4)))
 (let ((?x2541 (ite (or $x1133 $x804 $x729 $x474) 30 31)))
 (let (($x711 (= (mod x_plus_year 400) 0)))
 (let (($x3055 (= (mod x_plus_year 4) 0)))
 (let (($x839 (or (and $x3055 (and (distinct (mod x_plus_year 100) 0) true)) $x711)))
 (let (($x3345 (= x_plus_month 2)))
 (let (($x580 (>= x_plus_day 1)))
 (let (($x1345 (<= x_plus_month 12)))
 (let (($x927 (>= x_plus_month 1)))
 (let (($x1110 (<= x_plus_year 2100)))
 (let (($x975 (>= x_plus_year 1900)))
 (and $x975 $x1110 $x927 $x1345 $x580 (<= x_plus_day (ite $x3345 (ite $x839 29 28) ?x2541))))))))))))))))))
(assert
 (let (($x711 (= (mod x_plus_year 400) 0)))
 (let (($x3055 (= (mod x_plus_year 4) 0)))
 (let (($x839 (or (and $x3055 (and (distinct (mod x_plus_year 100) 0) true)) $x711)))
 (let (($x783 (= 2 x_plus_month)))
 (let ((?x1176 (ite $x783 (ite $x839 31 31) (ite (= 1 x_plus_month) (ite $x839 0 0) 0))))
 (let (($x995 (= 3 x_plus_month)))
 (let (($x1186 (= 4 x_plus_month)))
 (let ((?x959 (ite $x1186 (ite $x839 91 90) (ite $x995 (ite $x839 60 59) ?x1176))))
 (let (($x864 (= 5 x_plus_month)))
 (let (($x707 (= 6 x_plus_month)))
 (let ((?x958 (ite $x707 (ite $x839 152 151) (ite $x864 (ite $x839 121 120) ?x959))))
 (let (($x568 (= 7 x_plus_month)))
 (let (($x595 (= 8 x_plus_month)))
 (let ((?x1055 (ite $x595 (ite $x839 213 212) (ite $x568 (ite $x839 182 181) ?x958))))
 (let (($x2027 (= 9 x_plus_month)))
 (let (($x996 (= 10 x_plus_month)))
 (let ((?x1040 (ite $x996 (ite $x839 274 273) (ite $x2027 (ite $x839 244 243) ?x1055))))
 (let (($x869 (= 11 x_plus_month)))
 (let (($x602 (= 12 x_plus_month)))
 (let ((?x500 (ite $x602 (ite $x839 335 334) (ite $x869 (ite $x839 305 304) ?x1040))))
 (let ((?x933 (+ (* 365 (- x_plus_year 1)) (div (- x_plus_year 1) 4))))
 (let ((?x1107 (+ (- ?x933 (div (- x_plus_year 1) 100)) (div (- x_plus_year 1) 400))))
 (= x_plus_epoch (- (+ (+ ?x1107 ?x500) (- x_plus_day 1)) 730179)))))))))))))))))))))))))
(assert
 (let ((?x727 (+ x_epoch 730179)))
 (let ((?x1230 (mod ?x727 146097)))
 (let ((?x2607 (div ?x1230 36524)))
 (let ((?x1117 (ite (<= 4 ?x2607) 3 ?x2607)))
 (let ((?x2141 (- ?x1230 (* ?x1117 36524))))
 (let ((?x835 (mod ?x2141 1461)))
 (let ((?x1198 (div ?x835 365)))
 (let ((?x1059 (ite (<= 4 ?x1198) 3 ?x1198)))
 (let ((?x1324 (+ (+ (* (div ?x727 146097) 400) (* ?x1117 100)) (* (div ?x2141 1461) 4))))
 (let ((?x736 (+ (+ ?x1324 ?x1059) 1)))
 (let (($x3865 (or (and (= (mod ?x736 4) 0) (and (distinct (mod ?x736 100) 0) true)) (= (mod ?x736 400) 0))))
 (let ((?x863 (- ?x835 (* ?x1059 365))))
 (let ((?x3443 (ite $x3865 31 31)))
 (let (($x904 (>= ?x863 ?x3443)))
 (let ((?x2088 (ite $x904 (+ (- ?x863 ?x3443) 1) (+ (- ?x863 (ite $x3865 0 0)) 1))))
 (let ((?x3384 (ite $x3865 60 59)))
 (let (($x1025 (>= ?x863 ?x3384)))
 (let ((?x941 (ite $x3865 91 90)))
 (let (($x439 (>= ?x863 ?x941)))
 (let ((?x819 (ite $x439 (+ (- ?x863 ?x941) 1) (ite $x1025 (+ (- ?x863 ?x3384) 1) ?x2088))))
 (let ((?x511 (ite $x3865 121 120)))
 (let (($x2931 (>= ?x863 ?x511)))
 (let ((?x3860 (ite $x3865 152 151)))
 (let (($x3340 (>= ?x863 ?x3860)))
 (let ((?x766 (ite $x3340 (+ (- ?x863 ?x3860) 1) (ite $x2931 (+ (- ?x863 ?x511) 1) ?x819))))
 (let ((?x850 (ite $x3865 182 181)))
 (let (($x629 (>= ?x863 ?x850)))
 (let ((?x3549 (ite $x3865 213 212)))
 (let (($x1203 (>= ?x863 ?x3549)))
 (let ((?x1742 (ite $x1203 (+ (- ?x863 ?x3549) 1) (ite $x629 (+ (- ?x863 ?x850) 1) ?x766))))
 (let ((?x838 (ite $x3865 244 243)))
 (let (($x3244 (>= ?x863 ?x838)))
 (let ((?x1956 (ite $x3865 274 273)))
 (let (($x3144 (>= ?x863 ?x1956)))
 (let ((?x2205 (ite $x3144 (+ (- ?x863 ?x1956) 1) (ite $x3244 (+ (- ?x863 ?x838) 1) ?x1742))))
 (let ((?x1604 (ite $x3865 305 304)))
 (let (($x2513 (>= ?x863 ?x1604)))
 (let ((?x2014 (ite $x3865 335 334)))
 (let (($x2736 (>= ?x863 ?x2014)))
 (let ((?x730 (ite $x2736 (+ (- ?x863 ?x2014) 1) (ite $x2513 (+ (- ?x863 ?x1604) 1) ?x2205))))
 (let ((?x2440 (+ (* 1 12) 0)))
 (let ((?x1001 (ite $x2931 5 (ite $x439 4 (ite $x1025 3 (ite $x904 2 1))))))
 (let ((?x3030 (ite $x3244 9 (ite $x1203 8 (ite $x629 7 (ite $x3340 6 ?x1001))))))
 (let ((?x1497 (ite $x2736 12 (ite $x2513 11 (ite $x3144 10 ?x3030)))))
 (let ((?x517 (+ ?x1497 ?x2440)))
 (let ((?x3783 (- ?x517 1)))
 (let ((?x613 (+ (mod ?x3783 12) 1)))
 (let ((?x601 (ite (or (= ?x613 4) (= ?x613 6) (= ?x613 9) (= ?x613 11)) 30 31)))
 (let (($x2598 (and (= (mod (+ ?x736 (+ 0 (div ?x3783 12))) 4) 0) (and (distinct (mod (+ ?x736 (+ 0 (div ?x3783 12))) 100) 0) true))))
 (let (($x1086 (or $x2598 (= (mod (+ ?x736 (+ 0 (div ?x3783 12))) 400) 0))))
 (let ((?x734 (ite (= ?x613 2) (ite $x1086 29 28) ?x601)))
 (let (($x3891 (> 1 ?x730)))
 (let ((?x466 (ite $x3891 1 (ite (> ?x730 ?x734) ?x734 ?x730))))
 (let ((?x563 (ite (> 1 ?x466) 1 (ite (> ?x466 ?x734) ?x734 ?x466))))
 (let ((?x1640 (ite (= 2 ?x613) (ite $x1086 31 31) (ite (= 1 ?x613) (ite $x1086 0 0) 0))))
 (let ((?x3184 (ite (= 4 ?x613) (ite $x1086 91 90) (ite (= 3 ?x613) (ite $x1086 60 59) ?x1640))))
 (let ((?x3324 (ite (= 6 ?x613) (ite $x1086 152 151) (ite (= 5 ?x613) (ite $x1086 121 120) ?x3184))))
 (let ((?x1587 (ite (= 8 ?x613) (ite $x1086 213 212) (ite (= 7 ?x613) (ite $x1086 182 181) ?x3324))))
 (let ((?x2102 (ite (= 10 ?x613) (ite $x1086 274 273) (ite (= 9 ?x613) (ite $x1086 244 243) ?x1587))))
 (let ((?x1512 (ite (= 12 ?x613) (ite $x1086 335 334) (ite (= 11 ?x613) (ite $x1086 305 304) ?x2102))))
 (let ((?x1388 (+ (* 365 (- (+ ?x736 (+ 0 (div ?x3783 12))) 1)) (div (- (+ ?x736 (+ 0 (div ?x3783 12))) 1) 4))))
 (let ((?x1120 (+ (- ?x1388 (div (- (+ ?x736 (+ 0 (div ?x3783 12))) 1) 100)) (div (- (+ ?x736 (+ 0 (div ?x3783 12))) 1) 400))))
 (let ((?x820 (+ (+ (- (+ (+ ?x1120 ?x1512) (- ?x563 1)) 730179) 0) 730179)))
 (let ((?x3542 (mod ?x820 146097)))
 (let ((?x2341 (div ?x3542 36524)))
 (let ((?x1866 (ite (<= 4 ?x2341) 3 ?x2341)))
 (let ((?x1914 (- ?x3542 (* ?x1866 36524))))
 (let ((?x2068 (mod ?x1914 1461)))
 (let ((?x3087 (div ?x2068 365)))
 (let ((?x3616 (ite (<= 4 ?x3087) 3 ?x3087)))
 (let ((?x837 (+ (+ (* (div ?x820 146097) 400) (* ?x1866 100)) (* (div ?x1914 1461) 4))))
 (let ((?x3343 (+ (+ ?x837 ?x3616) 1)))
 (let ((?x508 (+ 0 (div ?x3783 12))))
 (let ((?x1338 (+ ?x736 ?x508)))
 (let (($x411 (= 0 0)))
 (let ((?x3375 (ite $x411 ?x1338 ?x3343)))
 (= x_plus_year ?x3375))))))))))))))))))))))))))))))))))))))))))))))))))))))))))))))))))))))))))))))
(assert
 (let ((?x727 (+ x_epoch 730179)))
 (let ((?x1230 (mod ?x727 146097)))
 (let ((?x2607 (div ?x1230 36524)))
 (let ((?x1117 (ite (<= 4 ?x2607) 3 ?x2607)))
 (let ((?x2141 (- ?x1230 (* ?x1117 36524))))
 (let ((?x835 (mod ?x2141 1461)))
 (let ((?x1198 (div ?x835 365)))
 (let ((?x1059 (ite (<= 4 ?x1198) 3 ?x1198)))
 (let ((?x1324 (+ (+ (* (div ?x727 146097) 400) (* ?x1117 100)) (* (div ?x2141 1461) 4))))
 (let ((?x736 (+ (+ ?x1324 ?x1059) 1)))
 (let (($x3865 (or (and (= (mod ?x736 4) 0) (and (distinct (mod ?x736 100) 0) true)) (= (mod ?x736 400) 0))))
 (let ((?x863 (- ?x835 (* ?x1059 365))))
 (let ((?x3443 (ite $x3865 31 31)))
 (let (($x904 (>= ?x863 ?x3443)))
 (let ((?x2088 (ite $x904 (+ (- ?x863 ?x3443) 1) (+ (- ?x863 (ite $x3865 0 0)) 1))))
 (let ((?x3384 (ite $x3865 60 59)))
 (let (($x1025 (>= ?x863 ?x3384)))
 (let ((?x941 (ite $x3865 91 90)))
 (let (($x439 (>= ?x863 ?x941)))
 (let ((?x819 (ite $x439 (+ (- ?x863 ?x941) 1) (ite $x1025 (+ (- ?x863 ?x3384) 1) ?x2088))))
 (let ((?x511 (ite $x3865 121 120)))
 (let (($x2931 (>= ?x863 ?x511)))
 (let ((?x3860 (ite $x3865 152 151)))
 (let (($x3340 (>= ?x863 ?x3860)))
 (let ((?x766 (ite $x3340 (+ (- ?x863 ?x3860) 1) (ite $x2931 (+ (- ?x863 ?x511) 1) ?x819))))
 (let ((?x850 (ite $x3865 182 181)))
 (let (($x629 (>= ?x863 ?x850)))
 (let ((?x3549 (ite $x3865 213 212)))
 (let (($x1203 (>= ?x863 ?x3549)))
 (let ((?x1742 (ite $x1203 (+ (- ?x863 ?x3549) 1) (ite $x629 (+ (- ?x863 ?x850) 1) ?x766))))
 (let ((?x838 (ite $x3865 244 243)))
 (let (($x3244 (>= ?x863 ?x838)))
 (let ((?x1956 (ite $x3865 274 273)))
 (let (($x3144 (>= ?x863 ?x1956)))
 (let ((?x2205 (ite $x3144 (+ (- ?x863 ?x1956) 1) (ite $x3244 (+ (- ?x863 ?x838) 1) ?x1742))))
 (let ((?x1604 (ite $x3865 305 304)))
 (let (($x2513 (>= ?x863 ?x1604)))
 (let ((?x2014 (ite $x3865 335 334)))
 (let (($x2736 (>= ?x863 ?x2014)))
 (let ((?x730 (ite $x2736 (+ (- ?x863 ?x2014) 1) (ite $x2513 (+ (- ?x863 ?x1604) 1) ?x2205))))
 (let ((?x2440 (+ (* 1 12) 0)))
 (let ((?x1001 (ite $x2931 5 (ite $x439 4 (ite $x1025 3 (ite $x904 2 1))))))
 (let ((?x3030 (ite $x3244 9 (ite $x1203 8 (ite $x629 7 (ite $x3340 6 ?x1001))))))
 (let ((?x1497 (ite $x2736 12 (ite $x2513 11 (ite $x3144 10 ?x3030)))))
 (let ((?x517 (+ ?x1497 ?x2440)))
 (let ((?x3783 (- ?x517 1)))
 (let ((?x613 (+ (mod ?x3783 12) 1)))
 (let ((?x601 (ite (or (= ?x613 4) (= ?x613 6) (= ?x613 9) (= ?x613 11)) 30 31)))
 (let (($x2598 (and (= (mod (+ ?x736 (+ 0 (div ?x3783 12))) 4) 0) (and (distinct (mod (+ ?x736 (+ 0 (div ?x3783 12))) 100) 0) true))))
 (let (($x1086 (or $x2598 (= (mod (+ ?x736 (+ 0 (div ?x3783 12))) 400) 0))))
 (let ((?x734 (ite (= ?x613 2) (ite $x1086 29 28) ?x601)))
 (let (($x3891 (> 1 ?x730)))
 (let ((?x466 (ite $x3891 1 (ite (> ?x730 ?x734) ?x734 ?x730))))
 (let ((?x563 (ite (> 1 ?x466) 1 (ite (> ?x466 ?x734) ?x734 ?x466))))
 (let ((?x1640 (ite (= 2 ?x613) (ite $x1086 31 31) (ite (= 1 ?x613) (ite $x1086 0 0) 0))))
 (let ((?x3184 (ite (= 4 ?x613) (ite $x1086 91 90) (ite (= 3 ?x613) (ite $x1086 60 59) ?x1640))))
 (let ((?x3324 (ite (= 6 ?x613) (ite $x1086 152 151) (ite (= 5 ?x613) (ite $x1086 121 120) ?x3184))))
 (let ((?x1587 (ite (= 8 ?x613) (ite $x1086 213 212) (ite (= 7 ?x613) (ite $x1086 182 181) ?x3324))))
 (let ((?x2102 (ite (= 10 ?x613) (ite $x1086 274 273) (ite (= 9 ?x613) (ite $x1086 244 243) ?x1587))))
 (let ((?x1512 (ite (= 12 ?x613) (ite $x1086 335 334) (ite (= 11 ?x613) (ite $x1086 305 304) ?x2102))))
 (let ((?x1388 (+ (* 365 (- (+ ?x736 (+ 0 (div ?x3783 12))) 1)) (div (- (+ ?x736 (+ 0 (div ?x3783 12))) 1) 4))))
 (let ((?x1120 (+ (- ?x1388 (div (- (+ ?x736 (+ 0 (div ?x3783 12))) 1) 100)) (div (- (+ ?x736 (+ 0 (div ?x3783 12))) 1) 400))))
 (let ((?x820 (+ (+ (- (+ (+ ?x1120 ?x1512) (- ?x563 1)) 730179) 0) 730179)))
 (let ((?x3542 (mod ?x820 146097)))
 (let ((?x2341 (div ?x3542 36524)))
 (let ((?x1866 (ite (<= 4 ?x2341) 3 ?x2341)))
 (let ((?x1914 (- ?x3542 (* ?x1866 36524))))
 (let ((?x2068 (mod ?x1914 1461)))
 (let ((?x3087 (div ?x2068 365)))
 (let ((?x3616 (ite (<= 4 ?x3087) 3 ?x3087)))
 (let ((?x837 (+ (+ (* (div ?x820 146097) 400) (* ?x1866 100)) (* (div ?x1914 1461) 4))))
 (let ((?x3343 (+ (+ ?x837 ?x3616) 1)))
 (let (($x2268 (or (and (= (mod ?x3343 4) 0) (and (distinct (mod ?x3343 100) 0) true)) (= (mod ?x3343 400) 0))))
 (let ((?x1373 (ite $x2268 31 31)))
 (let ((?x3645 (- ?x2068 (* ?x3616 365))))
 (let (($x1802 (>= ?x3645 ?x1373)))
 (let ((?x2072 (ite $x2268 60 59)))
 (let (($x2865 (>= ?x3645 ?x2072)))
 (let ((?x1398 (ite $x2268 91 90)))
 (let (($x3180 (>= ?x3645 ?x1398)))
 (let ((?x2612 (ite $x2268 121 120)))
 (let (($x2061 (>= ?x3645 ?x2612)))
 (let ((?x2478 (ite $x2061 5 (ite $x3180 4 (ite $x2865 3 (ite $x1802 2 1))))))
 (let ((?x2823 (ite $x2268 152 151)))
 (let (($x3190 (>= ?x3645 ?x2823)))
 (let ((?x2817 (ite $x2268 182 181)))
 (let (($x3457 (>= ?x3645 ?x2817)))
 (let ((?x2818 (ite $x2268 213 212)))
 (let (($x2759 (>= ?x3645 ?x2818)))
 (let ((?x1487 (ite $x2268 244 243)))
 (let (($x2454 (>= ?x3645 ?x1487)))
 (let ((?x1711 (ite $x2454 9 (ite $x2759 8 (ite $x3457 7 (ite $x3190 6 ?x2478))))))
 (let ((?x3825 (ite $x2268 274 273)))
 (let (($x2940 (>= ?x3645 ?x3825)))
 (let ((?x1562 (ite $x2268 305 304)))
 (let (($x2501 (>= ?x3645 ?x1562)))
 (let ((?x1378 (ite $x2268 335 334)))
 (let (($x2515 (>= ?x3645 ?x1378)))
 (let (($x411 (= 0 0)))
 (let ((?x1979 (ite $x411 ?x613 (ite $x2515 12 (ite $x2501 11 (ite $x2940 10 ?x1711))))))
 (= x_plus_month ?x1979))))))))))))))))))))))))))))))))))))))))))))))))))))))))))))))))))))))))))))))))))))))))))))))))))))))
(assert
 (let ((?x727 (+ x_epoch 730179)))
 (let ((?x1230 (mod ?x727 146097)))
 (let ((?x2607 (div ?x1230 36524)))
 (let ((?x1117 (ite (<= 4 ?x2607) 3 ?x2607)))
 (let ((?x2141 (- ?x1230 (* ?x1117 36524))))
 (let ((?x835 (mod ?x2141 1461)))
 (let ((?x1198 (div ?x835 365)))
 (let ((?x1059 (ite (<= 4 ?x1198) 3 ?x1198)))
 (let ((?x1324 (+ (+ (* (div ?x727 146097) 400) (* ?x1117 100)) (* (div ?x2141 1461) 4))))
 (let ((?x736 (+ (+ ?x1324 ?x1059) 1)))
 (let (($x3865 (or (and (= (mod ?x736 4) 0) (and (distinct (mod ?x736 100) 0) true)) (= (mod ?x736 400) 0))))
 (let ((?x863 (- ?x835 (* ?x1059 365))))
 (let ((?x3443 (ite $x3865 31 31)))
 (let (($x904 (>= ?x863 ?x3443)))
 (let ((?x2088 (ite $x904 (+ (- ?x863 ?x3443) 1) (+ (- ?x863 (ite $x3865 0 0)) 1))))
 (let ((?x3384 (ite $x3865 60 59)))
 (let (($x1025 (>= ?x863 ?x3384)))
 (let ((?x941 (ite $x3865 91 90)))
 (let (($x439 (>= ?x863 ?x941)))
 (let ((?x819 (ite $x439 (+ (- ?x863 ?x941) 1) (ite $x1025 (+ (- ?x863 ?x3384) 1) ?x2088))))
 (let ((?x511 (ite $x3865 121 120)))
 (let (($x2931 (>= ?x863 ?x511)))
 (let ((?x3860 (ite $x3865 152 151)))
 (let (($x3340 (>= ?x863 ?x3860)))
 (let ((?x766 (ite $x3340 (+ (- ?x863 ?x3860) 1) (ite $x2931 (+ (- ?x863 ?x511) 1) ?x819))))
 (let ((?x850 (ite $x3865 182 181)))
 (let (($x629 (>= ?x863 ?x850)))
 (let ((?x3549 (ite $x3865 213 212)))
 (let (($x1203 (>= ?x863 ?x3549)))
 (let ((?x1742 (ite $x1203 (+ (- ?x863 ?x3549) 1) (ite $x629 (+ (- ?x863 ?x850) 1) ?x766))))
 (let ((?x838 (ite $x3865 244 243)))
 (let (($x3244 (>= ?x863 ?x838)))
 (let ((?x1956 (ite $x3865 274 273)))
 (let (($x3144 (>= ?x863 ?x1956)))
 (let ((?x2205 (ite $x3144 (+ (- ?x863 ?x1956) 1) (ite $x3244 (+ (- ?x863 ?x838) 1) ?x1742))))
 (let ((?x1604 (ite $x3865 305 304)))
 (let (($x2513 (>= ?x863 ?x1604)))
 (let ((?x2014 (ite $x3865 335 334)))
 (let (($x2736 (>= ?x863 ?x2014)))
 (let ((?x730 (ite $x2736 (+ (- ?x863 ?x2014) 1) (ite $x2513 (+ (- ?x863 ?x1604) 1) ?x2205))))
 (let ((?x2440 (+ (* 1 12) 0)))
 (let ((?x1001 (ite $x2931 5 (ite $x439 4 (ite $x1025 3 (ite $x904 2 1))))))
 (let ((?x3030 (ite $x3244 9 (ite $x1203 8 (ite $x629 7 (ite $x3340 6 ?x1001))))))
 (let ((?x1497 (ite $x2736 12 (ite $x2513 11 (ite $x3144 10 ?x3030)))))
 (let ((?x517 (+ ?x1497 ?x2440)))
 (let ((?x3783 (- ?x517 1)))
 (let ((?x613 (+ (mod ?x3783 12) 1)))
 (let ((?x601 (ite (or (= ?x613 4) (= ?x613 6) (= ?x613 9) (= ?x613 11)) 30 31)))
 (let (($x2598 (and (= (mod (+ ?x736 (+ 0 (div ?x3783 12))) 4) 0) (and (distinct (mod (+ ?x736 (+ 0 (div ?x3783 12))) 100) 0) true))))
 (let (($x1086 (or $x2598 (= (mod (+ ?x736 (+ 0 (div ?x3783 12))) 400) 0))))
 (let ((?x734 (ite (= ?x613 2) (ite $x1086 29 28) ?x601)))
 (let (($x3891 (> 1 ?x730)))
 (let ((?x466 (ite $x3891 1 (ite (> ?x730 ?x734) ?x734 ?x730))))
 (let ((?x563 (ite (> 1 ?x466) 1 (ite (> ?x466 ?x734) ?x734 ?x466))))
 (let ((?x1640 (ite (= 2 ?x613) (ite $x1086 31 31) (ite (= 1 ?x613) (ite $x1086 0 0) 0))))
 (let ((?x3184 (ite (= 4 ?x613) (ite $x1086 91 90) (ite (= 3 ?x613) (ite $x1086 60 59) ?x1640))))
 (let ((?x3324 (ite (= 6 ?x613) (ite $x1086 152 151) (ite (= 5 ?x613) (ite $x1086 121 120) ?x3184))))
 (let ((?x1587 (ite (= 8 ?x613) (ite $x1086 213 212) (ite (= 7 ?x613) (ite $x1086 182 181) ?x3324))))
 (let ((?x2102 (ite (= 10 ?x613) (ite $x1086 274 273) (ite (= 9 ?x613) (ite $x1086 244 243) ?x1587))))
 (let ((?x1512 (ite (= 12 ?x613) (ite $x1086 335 334) (ite (= 11 ?x613) (ite $x1086 305 304) ?x2102))))
 (let ((?x1388 (+ (* 365 (- (+ ?x736 (+ 0 (div ?x3783 12))) 1)) (div (- (+ ?x736 (+ 0 (div ?x3783 12))) 1) 4))))
 (let ((?x1120 (+ (- ?x1388 (div (- (+ ?x736 (+ 0 (div ?x3783 12))) 1) 100)) (div (- (+ ?x736 (+ 0 (div ?x3783 12))) 1) 400))))
 (let ((?x820 (+ (+ (- (+ (+ ?x1120 ?x1512) (- ?x563 1)) 730179) 0) 730179)))
 (let ((?x3542 (mod ?x820 146097)))
 (let ((?x2341 (div ?x3542 36524)))
 (let ((?x1866 (ite (<= 4 ?x2341) 3 ?x2341)))
 (let ((?x1914 (- ?x3542 (* ?x1866 36524))))
 (let ((?x2068 (mod ?x1914 1461)))
 (let ((?x3087 (div ?x2068 365)))
 (let ((?x3616 (ite (<= 4 ?x3087) 3 ?x3087)))
 (let ((?x837 (+ (+ (* (div ?x820 146097) 400) (* ?x1866 100)) (* (div ?x1914 1461) 4))))
 (let ((?x3343 (+ (+ ?x837 ?x3616) 1)))
 (let (($x2268 (or (and (= (mod ?x3343 4) 0) (and (distinct (mod ?x3343 100) 0) true)) (= (mod ?x3343 400) 0))))
 (let ((?x3645 (- ?x2068 (* ?x3616 365))))
 (let ((?x1373 (ite $x2268 31 31)))
 (let (($x1802 (>= ?x3645 ?x1373)))
 (let ((?x422 (ite $x1802 (+ (- ?x3645 ?x1373) 1) (+ (- ?x3645 (ite $x2268 0 0)) 1))))
 (let ((?x2072 (ite $x2268 60 59)))
 (let (($x2865 (>= ?x3645 ?x2072)))
 (let ((?x1398 (ite $x2268 91 90)))
 (let (($x3180 (>= ?x3645 ?x1398)))
 (let ((?x3802 (ite $x3180 (+ (- ?x3645 ?x1398) 1) (ite $x2865 (+ (- ?x3645 ?x2072) 1) ?x422))))
 (let ((?x2612 (ite $x2268 121 120)))
 (let (($x2061 (>= ?x3645 ?x2612)))
 (let ((?x2823 (ite $x2268 152 151)))
 (let (($x3190 (>= ?x3645 ?x2823)))
 (let ((?x3305 (ite $x3190 (+ (- ?x3645 ?x2823) 1) (ite $x2061 (+ (- ?x3645 ?x2612) 1) ?x3802))))
 (let ((?x2817 (ite $x2268 182 181)))
 (let (($x3457 (>= ?x3645 ?x2817)))
 (let ((?x2818 (ite $x2268 213 212)))
 (let (($x2759 (>= ?x3645 ?x2818)))
 (let ((?x2711 (ite $x2759 (+ (- ?x3645 ?x2818) 1) (ite $x3457 (+ (- ?x3645 ?x2817) 1) ?x3305))))
 (let ((?x1487 (ite $x2268 244 243)))
 (let (($x2454 (>= ?x3645 ?x1487)))
 (let ((?x3825 (ite $x2268 274 273)))
 (let (($x2940 (>= ?x3645 ?x3825)))
 (let ((?x3114 (ite $x2940 (+ (- ?x3645 ?x3825) 1) (ite $x2454 (+ (- ?x3645 ?x1487) 1) ?x2711))))
 (let ((?x1562 (ite $x2268 305 304)))
 (let (($x2501 (>= ?x3645 ?x1562)))
 (let ((?x1378 (ite $x2268 335 334)))
 (let (($x2515 (>= ?x3645 ?x1378)))
 (let ((?x1968 (ite $x2515 (+ (- ?x3645 ?x1378) 1) (ite $x2501 (+ (- ?x3645 ?x1562) 1) ?x3114))))
 (let (($x411 (= 0 0)))
 (let ((?x3634 (ite $x411 ?x563 ?x1968)))
 (= x_plus_day ?x3634))))))))))))))))))))))))))))))))))))))))))))))))))))))))))))))))))))))))))))))))))))))))))))))))))))))))))
(assert
 (>= x_plus_1_epoch (- 36525)))
(assert
 (<= x_plus_1_epoch 36523))
(assert
 (= x_plus_1_epoch (+ x_epoch 366)))
(assert
 (not (= x_plus_epoch x_plus_1_epoch)))
(check-sat)
